clingo version 5.7.2
Reading from ../axioms/dec_clingo.lp ...
Solving...
Answer: 1 (Time: 0.017s)
happens(buy,0) happens(board,1) holdsAt(onRed,2) holdsAt(hasTicket,1) holdsAt(hasTicket,2) happens(boardRed,1)
SATISFIABLE

Models       : 1
Calls        : 1
Time         : 0.018s (Solving: 0.00s 1st Model: 0.00s Unsat: 0.00s)
CPU Time     : 0.005s
